#######################################
### Exact MIP solver for the HHCRSP ###
#######################################
-- Instance file: new-instances/HHCRSP_400_80_59_1.2_R_C.txt
-- Max threads: 4
-- Time limit: 999999 seconds
-- Use initial solution: No
Trivial flow violations prevented generating 2863511 variables.
Version identifier: 20.1.0.0 | 2020-11-10 | 9bedb6d68
CPXPARAM_Threads                                 4
CPXPARAM_Emphasis_Memory                         1
CPXPARAM_TimeLimit                               999999
Tried aggregator 1 time.
Presolve has eliminated 84612 rows and 18644 columns...
LP Presolve eliminated 84612 rows and 18644 columns.
Reduced LP has 3014840 rows, 2852411 columns, and 87386368 nonzeros.
Presolve time = 96.13 sec. (18575.71 ticks)
Compression time = 21.87 sec. (5.70 ticks)
Compression reduced 1256.68 MB A matrix to 378.50 MB
Symmetry aggregator did 5127728 additional substitutions.
Elapsed time = 119.56 sec. (19376.64 ticks, 1 iterations)

Iteration log . . .
Iteration:     1   Dual objective     =             0.000000
Iteration:  1800   Dual objective     =           319.666667

Dual crossover.
  Dual:  Fixing 2496 variables.
     2495 DMoves:  Infeasibility  3.60050878e-12  Objective  3.21333333e+02
        0 DMoves:  Infeasibility  1.46245516e-12  Objective  3.21333333e+02
  Dual:  Pushed 48, exchanged 2448.
  Primal:  Fixing 1824 variables.
     1823 PMoves:  Infeasibility  0.00000000e+00  Objective  3.21333333e+02
        0 PMoves:  Infeasibility  0.00000000e+00  Objective  3.21333333e+02
  Primal:  Pushed 1650, exchanged 174.

Solution status from MIP model:
-- Processing time: 157.501 sec.
-- Memory used: 1970.01 MB
-- Best bound: inf
-- Obj value: 321.333
-- Gap: inf%
-- Total distance: 964
-- Total tardiness: 0
-- Largest tardiness: 0
